\ENCODING=ISO-8859-1
\Problem name: 

Minimize
 obj1: x1 + x2 + x3 + x4
Subject To
 c1:  x1 + x12 + x13 + x14  = 1
 c2:  x2 + x9  = 1
 c3:  x3 + x10  = 1
 c4:  x4 + x11  = 1
 c5:  x5 - x6 + 4 x9 <= 3
 c6:  x5 - x7 + 4 x10 <= 3
 c7:  x5 - x8 + 4 x11 <= 3
 c8:  - x5 + x6 + 4 x12 <= 3
 c9:  - x5 + x7 + 4 x13 <= 3
 c10: - x5 + x8 + 4 x14 <= 3
 c11: - x6 + x7 + 4 x9 <= 3
 c12: - x6 + x8 + 4 x9 <= 3
 c13: x6 - x7 + 4 x10 <= 3
 c14: - x7 + x8 + 4 x10 <= 3
 c15: x6 - x8 + 4 x11 <= 3
 c16: x7 - x8 + 4 x11 <= 3
 c17: 3 x1 + x5 <= 3
 c18: 3 x2 + x6 <= 3
 c19: 3 x3 + x7 <= 3
 c20: 3 x4 + x8 <= 3
Bounds
 0 <= x1 <= 1
 0 <= x2 <= 1
 0 <= x3 <= 1
 0 <= x4 <= 1
 0 <= x5 <= 3
 0 <= x6 <= 3
 0 <= x7 <= 3
 0 <= x8 <= 3
 0 <= x9 <= 1
 0 <= x10 <= 1
 0 <= x11 <= 1
 0 <= x12 <= 1
 0 <= x13 <= 1
 0 <= x14 <= 1
Generals
 x1  x2  x3  x4  x5  x6  x7  x8  x9  x10  x11  x12  x13  x14 
End
